WARNING: for repeatability, setting FPU to use double precision
============================[ Problem Statistics ]=============================
|                                                                             |
|  Number of variables:           100                                         |
|  Number of clauses:             449                                         |
|  Parse time:                   0.00 s                                       |
|  Eliminated clauses:           0.00 Mb                                      |
|  Simplification time:          0.00 s                                       |
|                                                                             |
============================[ Search Statistics ]==============================
| Conflicts |          ORIGINAL         |          LEARNT          | Progress |
|           |    Vars  Clauses Literals |    Limit  Clauses Lit/Cl |          |
===============================================================================
|       100 |      98      447     1354 |      163      100      7 |  0.020 % |
===============================================================================
restarts              : 2
conflicts             : 178            (59254 /sec)
decisions             : 278            (0.00 % random) (92543 /sec)
propagations          : 4434           (1476032 /sec)
conflict literals     : 1149           (18.97 % deleted)
Memory used           : 13.00 MB
CPU time              : 0.003004 s

SATISFIABLE
